NAME SBuL-010-StripPacking-10
ROWS
 N  OBJ
 G  Height[B0]
 G  Height[B1]
 G  Height[B2]
 G  Height[B3]
 G  Height[B4]
 G  Height[B5]
 G  Height[B6]
 G  Height[B7]
 G  Height[B8]
 G  Height[B9]
 G  PM[B0,B1,0]
 G  PM[B0,B1,1]
 G  PM[B0,B2,0]
 G  PM[B0,B2,1]
 G  PM[B0,B3,0]
 G  PM[B0,B3,1]
 G  PM[B0,B4,0]
 G  PM[B0,B4,1]
 G  PM[B0,B5,0]
 G  PM[B0,B5,1]
 G  PM[B0,B6,0]
 G  PM[B0,B6,1]
 G  PM[B0,B7,0]
 G  PM[B0,B7,1]
 G  PM[B0,B8,0]
 G  PM[B0,B8,1]
 G  PM[B0,B9,0]
 G  PM[B0,B9,1]
 G  PM[B1,B0,0]
 G  PM[B1,B0,1]
 G  PM[B1,B2,0]
 G  PM[B1,B2,1]
 G  PM[B1,B3,0]
 G  PM[B1,B3,1]
 G  PM[B1,B4,0]
 G  PM[B1,B4,1]
 G  PM[B1,B5,0]
 G  PM[B1,B5,1]
 G  PM[B1,B6,0]
 G  PM[B1,B6,1]
 G  PM[B1,B7,0]
 G  PM[B1,B7,1]
 G  PM[B1,B8,0]
 G  PM[B1,B8,1]
 G  PM[B1,B9,0]
 G  PM[B1,B9,1]
 G  PM[B2,B0,0]
 G  PM[B2,B0,1]
 G  PM[B2,B1,0]
 G  PM[B2,B1,1]
 G  PM[B2,B3,0]
 G  PM[B2,B3,1]
 G  PM[B2,B4,0]
 G  PM[B2,B4,1]
 G  PM[B2,B5,0]
 G  PM[B2,B5,1]
 G  PM[B2,B6,0]
 G  PM[B2,B6,1]
 G  PM[B2,B7,0]
 G  PM[B2,B7,1]
 G  PM[B2,B8,0]
 G  PM[B2,B8,1]
 G  PM[B2,B9,0]
 G  PM[B2,B9,1]
 G  PM[B3,B0,0]
 G  PM[B3,B0,1]
 G  PM[B3,B1,0]
 G  PM[B3,B1,1]
 G  PM[B3,B2,0]
 G  PM[B3,B2,1]
 G  PM[B3,B4,0]
 G  PM[B3,B4,1]
 G  PM[B3,B5,0]
 G  PM[B3,B5,1]
 G  PM[B3,B6,0]
 G  PM[B3,B6,1]
 G  PM[B3,B7,0]
 G  PM[B3,B7,1]
 G  PM[B3,B8,0]
 G  PM[B3,B8,1]
 G  PM[B3,B9,0]
 G  PM[B3,B9,1]
 G  PM[B4,B0,0]
 G  PM[B4,B0,1]
 G  PM[B4,B1,0]
 G  PM[B4,B1,1]
 G  PM[B4,B2,0]
 G  PM[B4,B2,1]
 G  PM[B4,B3,0]
 G  PM[B4,B3,1]
 G  PM[B4,B5,0]
 G  PM[B4,B5,1]
 G  PM[B4,B6,0]
 G  PM[B4,B6,1]
 G  PM[B4,B7,0]
 G  PM[B4,B7,1]
 G  PM[B4,B8,0]
 G  PM[B4,B8,1]
 G  PM[B4,B9,0]
 G  PM[B4,B9,1]
 G  PM[B5,B0,0]
 G  PM[B5,B0,1]
 G  PM[B5,B1,0]
 G  PM[B5,B1,1]
 G  PM[B5,B2,0]
 G  PM[B5,B2,1]
 G  PM[B5,B3,0]
 G  PM[B5,B3,1]
 G  PM[B5,B4,0]
 G  PM[B5,B4,1]
 G  PM[B5,B6,0]
 G  PM[B5,B6,1]
 G  PM[B5,B7,0]
 G  PM[B5,B7,1]
 G  PM[B5,B8,0]
 G  PM[B5,B8,1]
 G  PM[B5,B9,0]
 G  PM[B5,B9,1]
 G  PM[B6,B0,0]
 G  PM[B6,B0,1]
 G  PM[B6,B1,0]
 G  PM[B6,B1,1]
 G  PM[B6,B2,0]
 G  PM[B6,B2,1]
 G  PM[B6,B3,0]
 G  PM[B6,B3,1]
 G  PM[B6,B4,0]
 G  PM[B6,B4,1]
 G  PM[B6,B5,0]
 G  PM[B6,B5,1]
 G  PM[B6,B7,0]
 G  PM[B6,B7,1]
 G  PM[B6,B8,0]
 G  PM[B6,B8,1]
 G  PM[B6,B9,0]
 G  PM[B6,B9,1]
 G  PM[B7,B0,0]
 G  PM[B7,B0,1]
 G  PM[B7,B1,0]
 G  PM[B7,B1,1]
 G  PM[B7,B2,0]
 G  PM[B7,B2,1]
 G  PM[B7,B3,0]
 G  PM[B7,B3,1]
 G  PM[B7,B4,0]
 G  PM[B7,B4,1]
 G  PM[B7,B5,0]
 G  PM[B7,B5,1]
 G  PM[B7,B6,0]
 G  PM[B7,B6,1]
 G  PM[B7,B8,0]
 G  PM[B7,B8,1]
 G  PM[B7,B9,0]
 G  PM[B7,B9,1]
 G  PM[B8,B0,0]
 G  PM[B8,B0,1]
 G  PM[B8,B1,0]
 G  PM[B8,B1,1]
 G  PM[B8,B2,0]
 G  PM[B8,B2,1]
 G  PM[B8,B3,0]
 G  PM[B8,B3,1]
 G  PM[B8,B4,0]
 G  PM[B8,B4,1]
 G  PM[B8,B5,0]
 G  PM[B8,B5,1]
 G  PM[B8,B6,0]
 G  PM[B8,B6,1]
 G  PM[B8,B7,0]
 G  PM[B8,B7,1]
 G  PM[B8,B9,0]
 G  PM[B8,B9,1]
 G  PM[B9,B0,0]
 G  PM[B9,B0,1]
 G  PM[B9,B1,0]
 G  PM[B9,B1,1]
 G  PM[B9,B2,0]
 G  PM[B9,B2,1]
 G  PM[B9,B3,0]
 G  PM[B9,B3,1]
 G  PM[B9,B4,0]
 G  PM[B9,B4,1]
 G  PM[B9,B5,0]
 G  PM[B9,B5,1]
 G  PM[B9,B6,0]
 G  PM[B9,B6,1]
 G  PM[B9,B7,0]
 G  PM[B9,B7,1]
 G  PM[B9,B8,0]
 G  PM[B9,B8,1]
COLUMNS
    c[B0,0]   PM[B0,B1,0]  -1
    c[B0,0]   PM[B0,B2,0]  -1
    c[B0,0]   PM[B0,B3,0]  -1
    c[B0,0]   PM[B0,B4,0]  -1
    c[B0,0]   PM[B0,B5,0]  -1
    c[B0,0]   PM[B0,B6,0]  -1
    c[B0,0]   PM[B0,B7,0]  -1
    c[B0,0]   PM[B0,B8,0]  -1
    c[B0,0]   PM[B0,B9,0]  -1
    c[B0,0]   PM[B1,B0,0]  1
    c[B0,0]   PM[B2,B0,0]  1
    c[B0,0]   PM[B3,B0,0]  1
    c[B0,0]   PM[B4,B0,0]  1
    c[B0,0]   PM[B5,B0,0]  1
    c[B0,0]   PM[B6,B0,0]  1
    c[B0,0]   PM[B7,B0,0]  1
    c[B0,0]   PM[B8,B0,0]  1
    c[B0,0]   PM[B9,B0,0]  1
    c[B0,1]   Height[B0]  -1
    c[B0,1]   PM[B0,B1,1]  -1
    c[B0,1]   PM[B0,B2,1]  -1
    c[B0,1]   PM[B0,B3,1]  -1
    c[B0,1]   PM[B0,B4,1]  -1
    c[B0,1]   PM[B0,B5,1]  -1
    c[B0,1]   PM[B0,B6,1]  -1
    c[B0,1]   PM[B0,B7,1]  -1
    c[B0,1]   PM[B0,B8,1]  -1
    c[B0,1]   PM[B0,B9,1]  -1
    c[B0,1]   PM[B1,B0,1]  1
    c[B0,1]   PM[B2,B0,1]  1
    c[B0,1]   PM[B3,B0,1]  1
    c[B0,1]   PM[B4,B0,1]  1
    c[B0,1]   PM[B5,B0,1]  1
    c[B0,1]   PM[B6,B0,1]  1
    c[B0,1]   PM[B7,B0,1]  1
    c[B0,1]   PM[B8,B0,1]  1
    c[B0,1]   PM[B9,B0,1]  1
    c[B1,0]   PM[B0,B1,0]  1
    c[B1,0]   PM[B1,B0,0]  -1
    c[B1,0]   PM[B1,B2,0]  -1
    c[B1,0]   PM[B1,B3,0]  -1
    c[B1,0]   PM[B1,B4,0]  -1
    c[B1,0]   PM[B1,B5,0]  -1
    c[B1,0]   PM[B1,B6,0]  -1
    c[B1,0]   PM[B1,B7,0]  -1
    c[B1,0]   PM[B1,B8,0]  -1
    c[B1,0]   PM[B1,B9,0]  -1
    c[B1,0]   PM[B2,B1,0]  1
    c[B1,0]   PM[B3,B1,0]  1
    c[B1,0]   PM[B4,B1,0]  1
    c[B1,0]   PM[B5,B1,0]  1
    c[B1,0]   PM[B6,B1,0]  1
    c[B1,0]   PM[B7,B1,0]  1
    c[B1,0]   PM[B8,B1,0]  1
    c[B1,0]   PM[B9,B1,0]  1
    c[B1,1]   Height[B1]  -1
    c[B1,1]   PM[B0,B1,1]  1
    c[B1,1]   PM[B1,B0,1]  -1
    c[B1,1]   PM[B1,B2,1]  -1
    c[B1,1]   PM[B1,B3,1]  -1
    c[B1,1]   PM[B1,B4,1]  -1
    c[B1,1]   PM[B1,B5,1]  -1
    c[B1,1]   PM[B1,B6,1]  -1
    c[B1,1]   PM[B1,B7,1]  -1
    c[B1,1]   PM[B1,B8,1]  -1
    c[B1,1]   PM[B1,B9,1]  -1
    c[B1,1]   PM[B2,B1,1]  1
    c[B1,1]   PM[B3,B1,1]  1
    c[B1,1]   PM[B4,B1,1]  1
    c[B1,1]   PM[B5,B1,1]  1
    c[B1,1]   PM[B6,B1,1]  1
    c[B1,1]   PM[B7,B1,1]  1
    c[B1,1]   PM[B8,B1,1]  1
    c[B1,1]   PM[B9,B1,1]  1
    c[B2,0]   PM[B0,B2,0]  1
    c[B2,0]   PM[B1,B2,0]  1
    c[B2,0]   PM[B2,B0,0]  -1
    c[B2,0]   PM[B2,B1,0]  -1
    c[B2,0]   PM[B2,B3,0]  -1
    c[B2,0]   PM[B2,B4,0]  -1
    c[B2,0]   PM[B2,B5,0]  -1
    c[B2,0]   PM[B2,B6,0]  -1
    c[B2,0]   PM[B2,B7,0]  -1
    c[B2,0]   PM[B2,B8,0]  -1
    c[B2,0]   PM[B2,B9,0]  -1
    c[B2,0]   PM[B3,B2,0]  1
    c[B2,0]   PM[B4,B2,0]  1
    c[B2,0]   PM[B5,B2,0]  1
    c[B2,0]   PM[B6,B2,0]  1
    c[B2,0]   PM[B7,B2,0]  1
    c[B2,0]   PM[B8,B2,0]  1
    c[B2,0]   PM[B9,B2,0]  1
    c[B2,1]   Height[B2]  -1
    c[B2,1]   PM[B0,B2,1]  1
    c[B2,1]   PM[B1,B2,1]  1
    c[B2,1]   PM[B2,B0,1]  -1
    c[B2,1]   PM[B2,B1,1]  -1
    c[B2,1]   PM[B2,B3,1]  -1
    c[B2,1]   PM[B2,B4,1]  -1
    c[B2,1]   PM[B2,B5,1]  -1
    c[B2,1]   PM[B2,B6,1]  -1
    c[B2,1]   PM[B2,B7,1]  -1
    c[B2,1]   PM[B2,B8,1]  -1
    c[B2,1]   PM[B2,B9,1]  -1
    c[B2,1]   PM[B3,B2,1]  1
    c[B2,1]   PM[B4,B2,1]  1
    c[B2,1]   PM[B5,B2,1]  1
    c[B2,1]   PM[B6,B2,1]  1
    c[B2,1]   PM[B7,B2,1]  1
    c[B2,1]   PM[B8,B2,1]  1
    c[B2,1]   PM[B9,B2,1]  1
    c[B3,0]   PM[B0,B3,0]  1
    c[B3,0]   PM[B1,B3,0]  1
    c[B3,0]   PM[B2,B3,0]  1
    c[B3,0]   PM[B3,B0,0]  -1
    c[B3,0]   PM[B3,B1,0]  -1
    c[B3,0]   PM[B3,B2,0]  -1
    c[B3,0]   PM[B3,B4,0]  -1
    c[B3,0]   PM[B3,B5,0]  -1
    c[B3,0]   PM[B3,B6,0]  -1
    c[B3,0]   PM[B3,B7,0]  -1
    c[B3,0]   PM[B3,B8,0]  -1
    c[B3,0]   PM[B3,B9,0]  -1
    c[B3,0]   PM[B4,B3,0]  1
    c[B3,0]   PM[B5,B3,0]  1
    c[B3,0]   PM[B6,B3,0]  1
    c[B3,0]   PM[B7,B3,0]  1
    c[B3,0]   PM[B8,B3,0]  1
    c[B3,0]   PM[B9,B3,0]  1
    c[B3,1]   Height[B3]  -1
    c[B3,1]   PM[B0,B3,1]  1
    c[B3,1]   PM[B1,B3,1]  1
    c[B3,1]   PM[B2,B3,1]  1
    c[B3,1]   PM[B3,B0,1]  -1
    c[B3,1]   PM[B3,B1,1]  -1
    c[B3,1]   PM[B3,B2,1]  -1
    c[B3,1]   PM[B3,B4,1]  -1
    c[B3,1]   PM[B3,B5,1]  -1
    c[B3,1]   PM[B3,B6,1]  -1
    c[B3,1]   PM[B3,B7,1]  -1
    c[B3,1]   PM[B3,B8,1]  -1
    c[B3,1]   PM[B3,B9,1]  -1
    c[B3,1]   PM[B4,B3,1]  1
    c[B3,1]   PM[B5,B3,1]  1
    c[B3,1]   PM[B6,B3,1]  1
    c[B3,1]   PM[B7,B3,1]  1
    c[B3,1]   PM[B8,B3,1]  1
    c[B3,1]   PM[B9,B3,1]  1
    c[B4,0]   PM[B0,B4,0]  1
    c[B4,0]   PM[B1,B4,0]  1
    c[B4,0]   PM[B2,B4,0]  1
    c[B4,0]   PM[B3,B4,0]  1
    c[B4,0]   PM[B4,B0,0]  -1
    c[B4,0]   PM[B4,B1,0]  -1
    c[B4,0]   PM[B4,B2,0]  -1
    c[B4,0]   PM[B4,B3,0]  -1
    c[B4,0]   PM[B4,B5,0]  -1
    c[B4,0]   PM[B4,B6,0]  -1
    c[B4,0]   PM[B4,B7,0]  -1
    c[B4,0]   PM[B4,B8,0]  -1
    c[B4,0]   PM[B4,B9,0]  -1
    c[B4,0]   PM[B5,B4,0]  1
    c[B4,0]   PM[B6,B4,0]  1
    c[B4,0]   PM[B7,B4,0]  1
    c[B4,0]   PM[B8,B4,0]  1
    c[B4,0]   PM[B9,B4,0]  1
    c[B4,1]   Height[B4]  -1
    c[B4,1]   PM[B0,B4,1]  1
    c[B4,1]   PM[B1,B4,1]  1
    c[B4,1]   PM[B2,B4,1]  1
    c[B4,1]   PM[B3,B4,1]  1
    c[B4,1]   PM[B4,B0,1]  -1
    c[B4,1]   PM[B4,B1,1]  -1
    c[B4,1]   PM[B4,B2,1]  -1
    c[B4,1]   PM[B4,B3,1]  -1
    c[B4,1]   PM[B4,B5,1]  -1
    c[B4,1]   PM[B4,B6,1]  -1
    c[B4,1]   PM[B4,B7,1]  -1
    c[B4,1]   PM[B4,B8,1]  -1
    c[B4,1]   PM[B4,B9,1]  -1
    c[B4,1]   PM[B5,B4,1]  1
    c[B4,1]   PM[B6,B4,1]  1
    c[B4,1]   PM[B7,B4,1]  1
    c[B4,1]   PM[B8,B4,1]  1
    c[B4,1]   PM[B9,B4,1]  1
    c[B5,0]   PM[B0,B5,0]  1
    c[B5,0]   PM[B1,B5,0]  1
    c[B5,0]   PM[B2,B5,0]  1
    c[B5,0]   PM[B3,B5,0]  1
    c[B5,0]   PM[B4,B5,0]  1
    c[B5,0]   PM[B5,B0,0]  -1
    c[B5,0]   PM[B5,B1,0]  -1
    c[B5,0]   PM[B5,B2,0]  -1
    c[B5,0]   PM[B5,B3,0]  -1
    c[B5,0]   PM[B5,B4,0]  -1
    c[B5,0]   PM[B5,B6,0]  -1
    c[B5,0]   PM[B5,B7,0]  -1
    c[B5,0]   PM[B5,B8,0]  -1
    c[B5,0]   PM[B5,B9,0]  -1
    c[B5,0]   PM[B6,B5,0]  1
    c[B5,0]   PM[B7,B5,0]  1
    c[B5,0]   PM[B8,B5,0]  1
    c[B5,0]   PM[B9,B5,0]  1
    c[B5,1]   Height[B5]  -1
    c[B5,1]   PM[B0,B5,1]  1
    c[B5,1]   PM[B1,B5,1]  1
    c[B5,1]   PM[B2,B5,1]  1
    c[B5,1]   PM[B3,B5,1]  1
    c[B5,1]   PM[B4,B5,1]  1
    c[B5,1]   PM[B5,B0,1]  -1
    c[B5,1]   PM[B5,B1,1]  -1
    c[B5,1]   PM[B5,B2,1]  -1
    c[B5,1]   PM[B5,B3,1]  -1
    c[B5,1]   PM[B5,B4,1]  -1
    c[B5,1]   PM[B5,B6,1]  -1
    c[B5,1]   PM[B5,B7,1]  -1
    c[B5,1]   PM[B5,B8,1]  -1
    c[B5,1]   PM[B5,B9,1]  -1
    c[B5,1]   PM[B6,B5,1]  1
    c[B5,1]   PM[B7,B5,1]  1
    c[B5,1]   PM[B8,B5,1]  1
    c[B5,1]   PM[B9,B5,1]  1
    c[B6,0]   PM[B0,B6,0]  1
    c[B6,0]   PM[B1,B6,0]  1
    c[B6,0]   PM[B2,B6,0]  1
    c[B6,0]   PM[B3,B6,0]  1
    c[B6,0]   PM[B4,B6,0]  1
    c[B6,0]   PM[B5,B6,0]  1
    c[B6,0]   PM[B6,B0,0]  -1
    c[B6,0]   PM[B6,B1,0]  -1
    c[B6,0]   PM[B6,B2,0]  -1
    c[B6,0]   PM[B6,B3,0]  -1
    c[B6,0]   PM[B6,B4,0]  -1
    c[B6,0]   PM[B6,B5,0]  -1
    c[B6,0]   PM[B6,B7,0]  -1
    c[B6,0]   PM[B6,B8,0]  -1
    c[B6,0]   PM[B6,B9,0]  -1
    c[B6,0]   PM[B7,B6,0]  1
    c[B6,0]   PM[B8,B6,0]  1
    c[B6,0]   PM[B9,B6,0]  1
    c[B6,1]   Height[B6]  -1
    c[B6,1]   PM[B0,B6,1]  1
    c[B6,1]   PM[B1,B6,1]  1
    c[B6,1]   PM[B2,B6,1]  1
    c[B6,1]   PM[B3,B6,1]  1
    c[B6,1]   PM[B4,B6,1]  1
    c[B6,1]   PM[B5,B6,1]  1
    c[B6,1]   PM[B6,B0,1]  -1
    c[B6,1]   PM[B6,B1,1]  -1
    c[B6,1]   PM[B6,B2,1]  -1
    c[B6,1]   PM[B6,B3,1]  -1
    c[B6,1]   PM[B6,B4,1]  -1
    c[B6,1]   PM[B6,B5,1]  -1
    c[B6,1]   PM[B6,B7,1]  -1
    c[B6,1]   PM[B6,B8,1]  -1
    c[B6,1]   PM[B6,B9,1]  -1
    c[B6,1]   PM[B7,B6,1]  1
    c[B6,1]   PM[B8,B6,1]  1
    c[B6,1]   PM[B9,B6,1]  1
    c[B7,0]   PM[B0,B7,0]  1
    c[B7,0]   PM[B1,B7,0]  1
    c[B7,0]   PM[B2,B7,0]  1
    c[B7,0]   PM[B3,B7,0]  1
    c[B7,0]   PM[B4,B7,0]  1
    c[B7,0]   PM[B5,B7,0]  1
    c[B7,0]   PM[B6,B7,0]  1
    c[B7,0]   PM[B7,B0,0]  -1
    c[B7,0]   PM[B7,B1,0]  -1
    c[B7,0]   PM[B7,B2,0]  -1
    c[B7,0]   PM[B7,B3,0]  -1
    c[B7,0]   PM[B7,B4,0]  -1
    c[B7,0]   PM[B7,B5,0]  -1
    c[B7,0]   PM[B7,B6,0]  -1
    c[B7,0]   PM[B7,B8,0]  -1
    c[B7,0]   PM[B7,B9,0]  -1
    c[B7,0]   PM[B8,B7,0]  1
    c[B7,0]   PM[B9,B7,0]  1
    c[B7,1]   Height[B7]  -1
    c[B7,1]   PM[B0,B7,1]  1
    c[B7,1]   PM[B1,B7,1]  1
    c[B7,1]   PM[B2,B7,1]  1
    c[B7,1]   PM[B3,B7,1]  1
    c[B7,1]   PM[B4,B7,1]  1
    c[B7,1]   PM[B5,B7,1]  1
    c[B7,1]   PM[B6,B7,1]  1
    c[B7,1]   PM[B7,B0,1]  -1
    c[B7,1]   PM[B7,B1,1]  -1
    c[B7,1]   PM[B7,B2,1]  -1
    c[B7,1]   PM[B7,B3,1]  -1
    c[B7,1]   PM[B7,B4,1]  -1
    c[B7,1]   PM[B7,B5,1]  -1
    c[B7,1]   PM[B7,B6,1]  -1
    c[B7,1]   PM[B7,B8,1]  -1
    c[B7,1]   PM[B7,B9,1]  -1
    c[B7,1]   PM[B8,B7,1]  1
    c[B7,1]   PM[B9,B7,1]  1
    c[B8,0]   PM[B0,B8,0]  1
    c[B8,0]   PM[B1,B8,0]  1
    c[B8,0]   PM[B2,B8,0]  1
    c[B8,0]   PM[B3,B8,0]  1
    c[B8,0]   PM[B4,B8,0]  1
    c[B8,0]   PM[B5,B8,0]  1
    c[B8,0]   PM[B6,B8,0]  1
    c[B8,0]   PM[B7,B8,0]  1
    c[B8,0]   PM[B8,B0,0]  -1
    c[B8,0]   PM[B8,B1,0]  -1
    c[B8,0]   PM[B8,B2,0]  -1
    c[B8,0]   PM[B8,B3,0]  -1
    c[B8,0]   PM[B8,B4,0]  -1
    c[B8,0]   PM[B8,B5,0]  -1
    c[B8,0]   PM[B8,B6,0]  -1
    c[B8,0]   PM[B8,B7,0]  -1
    c[B8,0]   PM[B8,B9,0]  -1
    c[B8,0]   PM[B9,B8,0]  1
    c[B8,1]   Height[B8]  -1
    c[B8,1]   PM[B0,B8,1]  1
    c[B8,1]   PM[B1,B8,1]  1
    c[B8,1]   PM[B2,B8,1]  1
    c[B8,1]   PM[B3,B8,1]  1
    c[B8,1]   PM[B4,B8,1]  1
    c[B8,1]   PM[B5,B8,1]  1
    c[B8,1]   PM[B6,B8,1]  1
    c[B8,1]   PM[B7,B8,1]  1
    c[B8,1]   PM[B8,B0,1]  -1
    c[B8,1]   PM[B8,B1,1]  -1
    c[B8,1]   PM[B8,B2,1]  -1
    c[B8,1]   PM[B8,B3,1]  -1
    c[B8,1]   PM[B8,B4,1]  -1
    c[B8,1]   PM[B8,B5,1]  -1
    c[B8,1]   PM[B8,B6,1]  -1
    c[B8,1]   PM[B8,B7,1]  -1
    c[B8,1]   PM[B8,B9,1]  -1
    c[B8,1]   PM[B9,B8,1]  1
    c[B9,0]   PM[B0,B9,0]  1
    c[B9,0]   PM[B1,B9,0]  1
    c[B9,0]   PM[B2,B9,0]  1
    c[B9,0]   PM[B3,B9,0]  1
    c[B9,0]   PM[B4,B9,0]  1
    c[B9,0]   PM[B5,B9,0]  1
    c[B9,0]   PM[B6,B9,0]  1
    c[B9,0]   PM[B7,B9,0]  1
    c[B9,0]   PM[B8,B9,0]  1
    c[B9,0]   PM[B9,B0,0]  -1
    c[B9,0]   PM[B9,B1,0]  -1
    c[B9,0]   PM[B9,B2,0]  -1
    c[B9,0]   PM[B9,B3,0]  -1
    c[B9,0]   PM[B9,B4,0]  -1
    c[B9,0]   PM[B9,B5,0]  -1
    c[B9,0]   PM[B9,B6,0]  -1
    c[B9,0]   PM[B9,B7,0]  -1
    c[B9,0]   PM[B9,B8,0]  -1
    c[B9,1]   Height[B9]  -1
    c[B9,1]   PM[B0,B9,1]  1
    c[B9,1]   PM[B1,B9,1]  1
    c[B9,1]   PM[B2,B9,1]  1
    c[B9,1]   PM[B3,B9,1]  1
    c[B9,1]   PM[B4,B9,1]  1
    c[B9,1]   PM[B5,B9,1]  1
    c[B9,1]   PM[B6,B9,1]  1
    c[B9,1]   PM[B7,B9,1]  1
    c[B9,1]   PM[B8,B9,1]  1
    c[B9,1]   PM[B9,B0,1]  -1
    c[B9,1]   PM[B9,B1,1]  -1
    c[B9,1]   PM[B9,B2,1]  -1
    c[B9,1]   PM[B9,B3,1]  -1
    c[B9,1]   PM[B9,B4,1]  -1
    c[B9,1]   PM[B9,B5,1]  -1
    c[B9,1]   PM[B9,B6,1]  -1
    c[B9,1]   PM[B9,B7,1]  -1
    c[B9,1]   PM[B9,B8,1]  -1
    h         OBJ       1
    h         Height[B0]  1
    h         Height[B1]  1
    h         Height[B2]  1
    h         Height[B3]  1
    h         Height[B4]  1
    h         Height[B5]  1
    h         Height[B6]  1
    h         Height[B7]  1
    h         Height[B8]  1
    h         Height[B9]  1
    MARKER    'MARKER'                 'INTORG'
    delta[B0,B1]  PM[B0,B1,0]  100
    delta[B0,B1]  PM[B0,B1,1]  -10000
    delta[B0,B1]  PM[B1,B0,0]  -100
    delta[B0,B1]  PM[B1,B0,1]  10000
    delta[B0,B2]  PM[B0,B2,0]  100
    delta[B0,B2]  PM[B0,B2,1]  -9997
    delta[B0,B2]  PM[B2,B0,0]  -100
    delta[B0,B2]  PM[B2,B0,1]  10000
    delta[B0,B3]  PM[B0,B3,0]  100
    delta[B0,B3]  PM[B0,B3,1]  -10000
    delta[B0,B3]  PM[B3,B0,0]  -100
    delta[B0,B3]  PM[B3,B0,1]  10000
    delta[B0,B4]  PM[B0,B4,0]  100
    delta[B0,B4]  PM[B0,B4,1]  -10000
    delta[B0,B4]  PM[B4,B0,0]  -100
    delta[B0,B4]  PM[B4,B0,1]  9998
    delta[B0,B5]  PM[B0,B5,0]  100
    delta[B0,B5]  PM[B0,B5,1]  -9995
    delta[B0,B5]  PM[B5,B0,0]  -100
    delta[B0,B5]  PM[B5,B0,1]  9998
    delta[B0,B6]  PM[B0,B6,0]  100
    delta[B0,B6]  PM[B0,B6,1]  -9989
    delta[B0,B6]  PM[B6,B0,0]  -100
    delta[B0,B6]  PM[B6,B0,1]  10000
    delta[B0,B7]  PM[B0,B7,0]  100
    delta[B0,B7]  PM[B0,B7,1]  -10000
    delta[B0,B7]  PM[B7,B0,0]  -100
    delta[B0,B7]  PM[B7,B0,1]  10000
    delta[B0,B8]  PM[B0,B8,0]  100
    delta[B0,B8]  PM[B0,B8,1]  -9994
    delta[B0,B8]  PM[B8,B0,0]  -100
    delta[B0,B8]  PM[B8,B0,1]  10000
    delta[B0,B9]  PM[B0,B9,0]  100
    delta[B0,B9]  PM[B0,B9,1]  -9993
    delta[B0,B9]  PM[B9,B0,0]  -100
    delta[B0,B9]  PM[B9,B0,1]  9998
    delta[B1,B0]  PM[B0,B1,0]  100
    delta[B1,B0]  PM[B0,B1,1]  10000
    delta[B1,B0]  PM[B1,B0,0]  -100
    delta[B1,B0]  PM[B1,B0,1]  -10000
    delta[B1,B2]  PM[B1,B2,0]  100
    delta[B1,B2]  PM[B1,B2,1]  -10000
    delta[B1,B2]  PM[B2,B1,0]  -100
    delta[B1,B2]  PM[B2,B1,1]  10000
    delta[B1,B3]  PM[B1,B3,0]  100
    delta[B1,B3]  PM[B1,B3,1]  -10000
    delta[B1,B3]  PM[B3,B1,0]  -95
    delta[B1,B3]  PM[B3,B1,1]  10000
    delta[B1,B4]  PM[B1,B4,0]  100
    delta[B1,B4]  PM[B1,B4,1]  -10000
    delta[B1,B4]  PM[B4,B1,0]  -100
    delta[B1,B4]  PM[B4,B1,1]  10000
    delta[B1,B5]  PM[B1,B5,0]  100
    delta[B1,B5]  PM[B1,B5,1]  -10000
    delta[B1,B5]  PM[B5,B1,0]  -100
    delta[B1,B5]  PM[B5,B1,1]  10000
    delta[B1,B6]  PM[B1,B6,0]  100
    delta[B1,B6]  PM[B1,B6,1]  -10000
    delta[B1,B6]  PM[B6,B1,0]  -100
    delta[B1,B6]  PM[B6,B1,1]  10000
    delta[B1,B7]  PM[B1,B7,0]  100
    delta[B1,B7]  PM[B1,B7,1]  -10000
    delta[B1,B7]  PM[B7,B1,0]  -100
    delta[B1,B7]  PM[B7,B1,1]  10000
    delta[B1,B8]  PM[B1,B8,0]  100
    delta[B1,B8]  PM[B1,B8,1]  -10000
    delta[B1,B8]  PM[B8,B1,0]  -100
    delta[B1,B8]  PM[B8,B1,1]  10000
    delta[B1,B9]  PM[B1,B9,0]  100
    delta[B1,B9]  PM[B1,B9,1]  -10000
    delta[B1,B9]  PM[B9,B1,0]  -92
    delta[B1,B9]  PM[B9,B1,1]  10000
    delta[B2,B0]  PM[B0,B2,0]  100
    delta[B2,B0]  PM[B0,B2,1]  9997
    delta[B2,B0]  PM[B2,B0,0]  -100
    delta[B2,B0]  PM[B2,B0,1]  -10000
    delta[B2,B1]  PM[B1,B2,0]  100
    delta[B2,B1]  PM[B1,B2,1]  10000
    delta[B2,B1]  PM[B2,B1,0]  -100
    delta[B2,B1]  PM[B2,B1,1]  -10000
    delta[B2,B3]  PM[B2,B3,0]  100
    delta[B2,B3]  PM[B2,B3,1]  -10000
    delta[B2,B3]  PM[B3,B2,0]  -96
    delta[B2,B3]  PM[B3,B2,1]  10000
    delta[B2,B4]  PM[B2,B4,0]  100
    delta[B2,B4]  PM[B2,B4,1]  -10000
    delta[B2,B4]  PM[B4,B2,0]  -100
    delta[B2,B4]  PM[B4,B2,1]  9997
    delta[B2,B5]  PM[B2,B5,0]  100
    delta[B2,B5]  PM[B2,B5,1]  -10000
    delta[B2,B5]  PM[B5,B2,0]  -100
    delta[B2,B5]  PM[B5,B2,1]  9997
    delta[B2,B6]  PM[B2,B6,0]  100
    delta[B2,B6]  PM[B2,B6,1]  -10000
    delta[B2,B6]  PM[B6,B2,0]  -100
    delta[B2,B6]  PM[B6,B2,1]  10000
    delta[B2,B7]  PM[B2,B7,0]  100
    delta[B2,B7]  PM[B2,B7,1]  -10000
    delta[B2,B7]  PM[B7,B2,0]  -100
    delta[B2,B7]  PM[B7,B2,1]  10000
    delta[B2,B8]  PM[B2,B8,0]  100
    delta[B2,B8]  PM[B2,B8,1]  -10000
    delta[B2,B8]  PM[B8,B2,0]  -100
    delta[B2,B8]  PM[B8,B2,1]  10000
    delta[B2,B9]  PM[B2,B9,0]  100
    delta[B2,B9]  PM[B2,B9,1]  -10000
    delta[B2,B9]  PM[B9,B2,0]  -96
    delta[B2,B9]  PM[B9,B2,1]  9997
    delta[B3,B0]  PM[B0,B3,0]  100
    delta[B3,B0]  PM[B0,B3,1]  10000
    delta[B3,B0]  PM[B3,B0,0]  -100
    delta[B3,B0]  PM[B3,B0,1]  -10000
    delta[B3,B1]  PM[B1,B3,0]  100
    delta[B3,B1]  PM[B1,B3,1]  10000
    delta[B3,B1]  PM[B3,B1,0]  -95
    delta[B3,B1]  PM[B3,B1,1]  -10000
    delta[B3,B2]  PM[B2,B3,0]  100
    delta[B3,B2]  PM[B2,B3,1]  10000
    delta[B3,B2]  PM[B3,B2,0]  -96
    delta[B3,B2]  PM[B3,B2,1]  -10000
    delta[B3,B4]  PM[B3,B4,0]  95
    delta[B3,B4]  PM[B3,B4,1]  -10000
    delta[B3,B4]  PM[B4,B3,0]  -100
    delta[B3,B4]  PM[B4,B3,1]  10000
    delta[B3,B5]  PM[B3,B5,0]  100
    delta[B3,B5]  PM[B3,B5,1]  -10000
    delta[B3,B5]  PM[B5,B3,0]  -100
    delta[B3,B5]  PM[B5,B3,1]  10000
    delta[B3,B6]  PM[B3,B6,0]  100
    delta[B3,B6]  PM[B3,B6,1]  -10000
    delta[B3,B6]  PM[B6,B3,0]  -100
    delta[B3,B6]  PM[B6,B3,1]  10000
    delta[B3,B7]  PM[B3,B7,0]  100
    delta[B3,B7]  PM[B3,B7,1]  -10000
    delta[B3,B7]  PM[B7,B3,0]  -100
    delta[B3,B7]  PM[B7,B3,1]  10000
    delta[B3,B8]  PM[B3,B8,0]  100
    delta[B3,B8]  PM[B3,B8,1]  -10000
    delta[B3,B8]  PM[B8,B3,0]  -100
    delta[B3,B8]  PM[B8,B3,1]  10000
    delta[B3,B9]  PM[B3,B9,0]  100
    delta[B3,B9]  PM[B3,B9,1]  -10000
    delta[B3,B9]  PM[B9,B3,0]  -92
    delta[B3,B9]  PM[B9,B3,1]  10000
    delta[B4,B0]  PM[B0,B4,0]  100
    delta[B4,B0]  PM[B0,B4,1]  10000
    delta[B4,B0]  PM[B4,B0,0]  -100
    delta[B4,B0]  PM[B4,B0,1]  -9998
    delta[B4,B1]  PM[B1,B4,0]  100
    delta[B4,B1]  PM[B1,B4,1]  10000
    delta[B4,B1]  PM[B4,B1,0]  -100
    delta[B4,B1]  PM[B4,B1,1]  -10000
    delta[B4,B2]  PM[B2,B4,0]  100
    delta[B4,B2]  PM[B2,B4,1]  10000
    delta[B4,B2]  PM[B4,B2,0]  -100
    delta[B4,B2]  PM[B4,B2,1]  -9997
    delta[B4,B3]  PM[B3,B4,0]  95
    delta[B4,B3]  PM[B3,B4,1]  10000
    delta[B4,B3]  PM[B4,B3,0]  -100
    delta[B4,B3]  PM[B4,B3,1]  -10000
    delta[B4,B5]  PM[B4,B5,0]  100
    delta[B4,B5]  PM[B4,B5,1]  -9995
    delta[B4,B5]  PM[B5,B4,0]  -100
    delta[B4,B5]  PM[B5,B4,1]  10000
    delta[B4,B6]  PM[B4,B6,0]  100
    delta[B4,B6]  PM[B4,B6,1]  -9989
    delta[B4,B6]  PM[B6,B4,0]  -100
    delta[B4,B6]  PM[B6,B4,1]  10000
    delta[B4,B7]  PM[B4,B7,0]  100
    delta[B4,B7]  PM[B4,B7,1]  -10000
    delta[B4,B7]  PM[B7,B4,0]  -100
    delta[B4,B7]  PM[B7,B4,1]  10000
    delta[B4,B8]  PM[B4,B8,0]  100
    delta[B4,B8]  PM[B4,B8,1]  -9994
    delta[B4,B8]  PM[B8,B4,0]  -100
    delta[B4,B8]  PM[B8,B4,1]  10000
    delta[B4,B9]  PM[B4,B9,0]  100
    delta[B4,B9]  PM[B4,B9,1]  -9993
    delta[B4,B9]  PM[B9,B4,0]  -92
    delta[B4,B9]  PM[B9,B4,1]  10000
    delta[B5,B0]  PM[B0,B5,0]  100
    delta[B5,B0]  PM[B0,B5,1]  9995
    delta[B5,B0]  PM[B5,B0,0]  -100
    delta[B5,B0]  PM[B5,B0,1]  -9998
    delta[B5,B1]  PM[B1,B5,0]  100
    delta[B5,B1]  PM[B1,B5,1]  10000
    delta[B5,B1]  PM[B5,B1,0]  -100
    delta[B5,B1]  PM[B5,B1,1]  -10000
    delta[B5,B2]  PM[B2,B5,0]  100
    delta[B5,B2]  PM[B2,B5,1]  10000
    delta[B5,B2]  PM[B5,B2,0]  -100
    delta[B5,B2]  PM[B5,B2,1]  -9997
    delta[B5,B3]  PM[B3,B5,0]  100
    delta[B5,B3]  PM[B3,B5,1]  10000
    delta[B5,B3]  PM[B5,B3,0]  -100
    delta[B5,B3]  PM[B5,B3,1]  -10000
    delta[B5,B4]  PM[B4,B5,0]  100
    delta[B5,B4]  PM[B4,B5,1]  9995
    delta[B5,B4]  PM[B5,B4,0]  -100
    delta[B5,B4]  PM[B5,B4,1]  -10000
    delta[B5,B6]  PM[B5,B6,0]  100
    delta[B5,B6]  PM[B5,B6,1]  -9989
    delta[B5,B6]  PM[B6,B5,0]  -100
    delta[B5,B6]  PM[B6,B5,1]  10000
    delta[B5,B7]  PM[B5,B7,0]  100
    delta[B5,B7]  PM[B5,B7,1]  -10000
    delta[B5,B7]  PM[B7,B5,0]  -100
    delta[B5,B7]  PM[B7,B5,1]  10000
    delta[B5,B8]  PM[B5,B8,0]  100
    delta[B5,B8]  PM[B5,B8,1]  -9994
    delta[B5,B8]  PM[B8,B5,0]  -100
    delta[B5,B8]  PM[B8,B5,1]  10000
    delta[B5,B9]  PM[B5,B9,0]  100
    delta[B5,B9]  PM[B5,B9,1]  -9993
    delta[B5,B9]  PM[B9,B5,0]  -100
    delta[B5,B9]  PM[B9,B5,1]  9995
    delta[B6,B0]  PM[B0,B6,0]  100
    delta[B6,B0]  PM[B0,B6,1]  9989
    delta[B6,B0]  PM[B6,B0,0]  -100
    delta[B6,B0]  PM[B6,B0,1]  -10000
    delta[B6,B1]  PM[B1,B6,0]  100
    delta[B6,B1]  PM[B1,B6,1]  10000
    delta[B6,B1]  PM[B6,B1,0]  -100
    delta[B6,B1]  PM[B6,B1,1]  -10000
    delta[B6,B2]  PM[B2,B6,0]  100
    delta[B6,B2]  PM[B2,B6,1]  10000
    delta[B6,B2]  PM[B6,B2,0]  -100
    delta[B6,B2]  PM[B6,B2,1]  -10000
    delta[B6,B3]  PM[B3,B6,0]  100
    delta[B6,B3]  PM[B3,B6,1]  10000
    delta[B6,B3]  PM[B6,B3,0]  -100
    delta[B6,B3]  PM[B6,B3,1]  -10000
    delta[B6,B4]  PM[B4,B6,0]  100
    delta[B6,B4]  PM[B4,B6,1]  9989
    delta[B6,B4]  PM[B6,B4,0]  -100
    delta[B6,B4]  PM[B6,B4,1]  -10000
    delta[B6,B5]  PM[B5,B6,0]  100
    delta[B6,B5]  PM[B5,B6,1]  9989
    delta[B6,B5]  PM[B6,B5,0]  -100
    delta[B6,B5]  PM[B6,B5,1]  -10000
    delta[B6,B7]  PM[B6,B7,0]  100
    delta[B6,B7]  PM[B6,B7,1]  -10000
    delta[B6,B7]  PM[B7,B6,0]  -100
    delta[B6,B7]  PM[B7,B6,1]  10000
    delta[B6,B8]  PM[B6,B8,0]  100
    delta[B6,B8]  PM[B6,B8,1]  -10000
    delta[B6,B8]  PM[B8,B6,0]  -100
    delta[B6,B8]  PM[B8,B6,1]  10000
    delta[B6,B9]  PM[B6,B9,0]  100
    delta[B6,B9]  PM[B6,B9,1]  -10000
    delta[B6,B9]  PM[B9,B6,0]  -100
    delta[B6,B9]  PM[B9,B6,1]  9990
    delta[B7,B0]  PM[B0,B7,0]  100
    delta[B7,B0]  PM[B0,B7,1]  10000
    delta[B7,B0]  PM[B7,B0,0]  -100
    delta[B7,B0]  PM[B7,B0,1]  -10000
    delta[B7,B1]  PM[B1,B7,0]  100
    delta[B7,B1]  PM[B1,B7,1]  10000
    delta[B7,B1]  PM[B7,B1,0]  -100
    delta[B7,B1]  PM[B7,B1,1]  -10000
    delta[B7,B2]  PM[B2,B7,0]  100
    delta[B7,B2]  PM[B2,B7,1]  10000
    delta[B7,B2]  PM[B7,B2,0]  -100
    delta[B7,B2]  PM[B7,B2,1]  -10000
    delta[B7,B3]  PM[B3,B7,0]  100
    delta[B7,B3]  PM[B3,B7,1]  10000
    delta[B7,B3]  PM[B7,B3,0]  -100
    delta[B7,B3]  PM[B7,B3,1]  -10000
    delta[B7,B4]  PM[B4,B7,0]  100
    delta[B7,B4]  PM[B4,B7,1]  10000
    delta[B7,B4]  PM[B7,B4,0]  -100
    delta[B7,B4]  PM[B7,B4,1]  -10000
    delta[B7,B5]  PM[B5,B7,0]  100
    delta[B7,B5]  PM[B5,B7,1]  10000
    delta[B7,B5]  PM[B7,B5,0]  -100
    delta[B7,B5]  PM[B7,B5,1]  -10000
    delta[B7,B6]  PM[B6,B7,0]  100
    delta[B7,B6]  PM[B6,B7,1]  10000
    delta[B7,B6]  PM[B7,B6,0]  -100
    delta[B7,B6]  PM[B7,B6,1]  -10000
    delta[B7,B8]  PM[B7,B8,0]  100
    delta[B7,B8]  PM[B7,B8,1]  -10000
    delta[B7,B8]  PM[B8,B7,0]  -100
    delta[B7,B8]  PM[B8,B7,1]  10000
    delta[B7,B9]  PM[B7,B9,0]  100
    delta[B7,B9]  PM[B7,B9,1]  -10000
    delta[B7,B9]  PM[B9,B7,0]  -100
    delta[B7,B9]  PM[B9,B7,1]  10000
    delta[B8,B0]  PM[B0,B8,0]  100
    delta[B8,B0]  PM[B0,B8,1]  9994
    delta[B8,B0]  PM[B8,B0,0]  -100
    delta[B8,B0]  PM[B8,B0,1]  -10000
    delta[B8,B1]  PM[B1,B8,0]  100
    delta[B8,B1]  PM[B1,B8,1]  10000
    delta[B8,B1]  PM[B8,B1,0]  -100
    delta[B8,B1]  PM[B8,B1,1]  -10000
    delta[B8,B2]  PM[B2,B8,0]  100
    delta[B8,B2]  PM[B2,B8,1]  10000
    delta[B8,B2]  PM[B8,B2,0]  -100
    delta[B8,B2]  PM[B8,B2,1]  -10000
    delta[B8,B3]  PM[B3,B8,0]  100
    delta[B8,B3]  PM[B3,B8,1]  10000
    delta[B8,B3]  PM[B8,B3,0]  -100
    delta[B8,B3]  PM[B8,B3,1]  -10000
    delta[B8,B4]  PM[B4,B8,0]  100
    delta[B8,B4]  PM[B4,B8,1]  9994
    delta[B8,B4]  PM[B8,B4,0]  -100
    delta[B8,B4]  PM[B8,B4,1]  -10000
    delta[B8,B5]  PM[B5,B8,0]  100
    delta[B8,B5]  PM[B5,B8,1]  9994
    delta[B8,B5]  PM[B8,B5,0]  -100
    delta[B8,B5]  PM[B8,B5,1]  -10000
    delta[B8,B6]  PM[B6,B8,0]  100
    delta[B8,B6]  PM[B6,B8,1]  10000
    delta[B8,B6]  PM[B8,B6,0]  -100
    delta[B8,B6]  PM[B8,B6,1]  -10000
    delta[B8,B7]  PM[B7,B8,0]  100
    delta[B8,B7]  PM[B7,B8,1]  10000
    delta[B8,B7]  PM[B8,B7,0]  -100
    delta[B8,B7]  PM[B8,B7,1]  -10000
    delta[B8,B9]  PM[B8,B9,0]  100
    delta[B8,B9]  PM[B8,B9,1]  -10000
    delta[B8,B9]  PM[B9,B8,0]  -100
    delta[B8,B9]  PM[B9,B8,1]  9994
    delta[B9,B0]  PM[B0,B9,0]  100
    delta[B9,B0]  PM[B0,B9,1]  9993
    delta[B9,B0]  PM[B9,B0,0]  -100
    delta[B9,B0]  PM[B9,B0,1]  -9998
    delta[B9,B1]  PM[B1,B9,0]  100
    delta[B9,B1]  PM[B1,B9,1]  10000
    delta[B9,B1]  PM[B9,B1,0]  -92
    delta[B9,B1]  PM[B9,B1,1]  -10000
    delta[B9,B2]  PM[B2,B9,0]  100
    delta[B9,B2]  PM[B2,B9,1]  10000
    delta[B9,B2]  PM[B9,B2,0]  -96
    delta[B9,B2]  PM[B9,B2,1]  -9997
    delta[B9,B3]  PM[B3,B9,0]  100
    delta[B9,B3]  PM[B3,B9,1]  10000
    delta[B9,B3]  PM[B9,B3,0]  -92
    delta[B9,B3]  PM[B9,B3,1]  -10000
    delta[B9,B4]  PM[B4,B9,0]  100
    delta[B9,B4]  PM[B4,B9,1]  9993
    delta[B9,B4]  PM[B9,B4,0]  -92
    delta[B9,B4]  PM[B9,B4,1]  -10000
    delta[B9,B5]  PM[B5,B9,0]  100
    delta[B9,B5]  PM[B5,B9,1]  9993
    delta[B9,B5]  PM[B9,B5,0]  -100
    delta[B9,B5]  PM[B9,B5,1]  -9995
    delta[B9,B6]  PM[B6,B9,0]  100
    delta[B9,B6]  PM[B6,B9,1]  10000
    delta[B9,B6]  PM[B9,B6,0]  -100
    delta[B9,B6]  PM[B9,B6,1]  -9990
    delta[B9,B7]  PM[B7,B9,0]  100
    delta[B9,B7]  PM[B7,B9,1]  10000
    delta[B9,B7]  PM[B9,B7,0]  -100
    delta[B9,B7]  PM[B9,B7,1]  -10000
    delta[B9,B8]  PM[B8,B9,0]  100
    delta[B9,B8]  PM[B8,B9,1]  10000
    delta[B9,B8]  PM[B9,B8,0]  -100
    delta[B9,B8]  PM[B9,B8,1]  -9994
    MARKER    'MARKER'                 'INTEND'
RHS
    RHS1      Height[B0]  18
    RHS1      Height[B1]  5.5
    RHS1      Height[B2]  3.5
    RHS1      Height[B3]  3
    RHS1      Height[B4]  25
    RHS1      Height[B5]  16.5
    RHS1      Height[B6]  12
    RHS1      Height[B7]  3.5
    RHS1      Height[B8]  4.5
    RHS1      Height[B9]  16
    RHS1      PM[B0,B1,0]  28
    RHS1      PM[B0,B1,1]  -9976.5
    RHS1      PM[B0,B2,0]  12.5
    RHS1      PM[B0,B2,1]  -9975.5
    RHS1      PM[B0,B3,0]  20.5
    RHS1      PM[B0,B3,1]  -9979
    RHS1      PM[B0,B4,0]  32
    RHS1      PM[B0,B4,1]  -9972
    RHS1      PM[B0,B5,0]  12
    RHS1      PM[B0,B5,1]  -9971.5
    RHS1      PM[B0,B6,0]  12
    RHS1      PM[B0,B6,1]  -9959
    RHS1      PM[B0,B7,0]  11
    RHS1      PM[B0,B7,1]  -9978.5
    RHS1      PM[B0,B8,0]  14
    RHS1      PM[B0,B8,1]  -9971.5
    RHS1      PM[B0,B9,0]  9
    RHS1      PM[B0,B9,1]  -9969
    RHS1      PM[B1,B0,0]  -187
    RHS1      PM[B1,B0,1]  -9986.5
    RHS1      PM[B1,B2,0]  15.5
    RHS1      PM[B1,B2,1]  -9988
    RHS1      PM[B1,B3,0]  23.5
    RHS1      PM[B1,B3,1]  -9991.5
    RHS1      PM[B1,B4,0]  35
    RHS1      PM[B1,B4,1]  -9984.5
    RHS1      PM[B1,B5,0]  15
    RHS1      PM[B1,B5,1]  -9984
    RHS1      PM[B1,B6,0]  15
    RHS1      PM[B1,B6,1]  -9971.5
    RHS1      PM[B1,B7,0]  14
    RHS1      PM[B1,B7,1]  -9991
    RHS1      PM[B1,B8,0]  17
    RHS1      PM[B1,B8,1]  -9984
    RHS1      PM[B1,B9,0]  12
    RHS1      PM[B1,B9,1]  -9981.5
    RHS1      PM[B2,B0,0]  -191.5
    RHS1      PM[B2,B0,1]  -9988.5
    RHS1      PM[B2,B1,0]  -173.5
    RHS1      PM[B2,B1,1]  -9991
    RHS1      PM[B2,B3,0]  19
    RHS1      PM[B2,B3,1]  -9993.5
    RHS1      PM[B2,B4,0]  30.5
    RHS1      PM[B2,B4,1]  -9986.5
    RHS1      PM[B2,B5,0]  10.5
    RHS1      PM[B2,B5,1]  -9986
    RHS1      PM[B2,B6,0]  10.5
    RHS1      PM[B2,B6,1]  -9973.5
    RHS1      PM[B2,B7,0]  9.5
    RHS1      PM[B2,B7,1]  -9993
    RHS1      PM[B2,B8,0]  12.5
    RHS1      PM[B2,B8,1]  -9986
    RHS1      PM[B2,B9,0]  7.5
    RHS1      PM[B2,B9,1]  -9983.5
    RHS1      PM[B3,B0,0]  -184.5
    RHS1      PM[B3,B0,1]  -9989
    RHS1      PM[B3,B1,0]  -161.5
    RHS1      PM[B3,B1,1]  -9991.5
    RHS1      PM[B3,B2,0]  -178
    RHS1      PM[B3,B2,1]  -9990.5
    RHS1      PM[B3,B4,0]  32.5
    RHS1      PM[B3,B4,1]  -9987
    RHS1      PM[B3,B5,0]  17.5
    RHS1      PM[B3,B5,1]  -9986.5
    RHS1      PM[B3,B6,0]  17.5
    RHS1      PM[B3,B6,1]  -9974
    RHS1      PM[B3,B7,0]  16.5
    RHS1      PM[B3,B7,1]  -9993.5
    RHS1      PM[B3,B8,0]  19.5
    RHS1      PM[B3,B8,1]  -9986.5
    RHS1      PM[B3,B9,0]  14.5
    RHS1      PM[B3,B9,1]  -9984
    RHS1      PM[B4,B0,0]  -186
    RHS1      PM[B4,B0,1]  -9967
    RHS1      PM[B4,B1,0]  -168
    RHS1      PM[B4,B1,1]  -9969.5
    RHS1      PM[B4,B2,0]  -183.5
    RHS1      PM[B4,B2,1]  -9968.5
    RHS1      PM[B4,B3,0]  -175.5
    RHS1      PM[B4,B3,1]  -9972
    RHS1      PM[B4,B5,0]  16
    RHS1      PM[B4,B5,1]  -9964.5
    RHS1      PM[B4,B6,0]  16
    RHS1      PM[B4,B6,1]  -9952
    RHS1      PM[B4,B7,0]  15
    RHS1      PM[B4,B7,1]  -9971.5
    RHS1      PM[B4,B8,0]  18
    RHS1      PM[B4,B8,1]  -9964.5
    RHS1      PM[B4,B9,0]  13
    RHS1      PM[B4,B9,1]  -9962
    RHS1      PM[B5,B0,0]  -188
    RHS1      PM[B5,B0,1]  -9975.5
    RHS1      PM[B5,B1,0]  -170
    RHS1      PM[B5,B1,1]  -9978
    RHS1      PM[B5,B2,0]  -185.5
    RHS1      PM[B5,B2,1]  -9977
    RHS1      PM[B5,B3,0]  -177.5
    RHS1      PM[B5,B3,1]  -9980.5
    RHS1      PM[B5,B4,0]  -166
    RHS1      PM[B5,B4,1]  -9973.5
    RHS1      PM[B5,B6,0]  14
    RHS1      PM[B5,B6,1]  -9960.5
    RHS1      PM[B5,B7,0]  13
    RHS1      PM[B5,B7,1]  -9980
    RHS1      PM[B5,B8,0]  16
    RHS1      PM[B5,B8,1]  -9973
    RHS1      PM[B5,B9,0]  11
    RHS1      PM[B5,B9,1]  -9970.5
    RHS1      PM[B6,B0,0]  -188
    RHS1      PM[B6,B0,1]  -9980
    RHS1      PM[B6,B1,0]  -170
    RHS1      PM[B6,B1,1]  -9982.5
    RHS1      PM[B6,B2,0]  -185.5
    RHS1      PM[B6,B2,1]  -9981.5
    RHS1      PM[B6,B3,0]  -177.5
    RHS1      PM[B6,B3,1]  -9985
    RHS1      PM[B6,B4,0]  -166
    RHS1      PM[B6,B4,1]  -9978
    RHS1      PM[B6,B5,0]  -186
    RHS1      PM[B6,B5,1]  -9977.5
    RHS1      PM[B6,B7,0]  13
    RHS1      PM[B6,B7,1]  -9984.5
    RHS1      PM[B6,B8,0]  16
    RHS1      PM[B6,B8,1]  -9977.5
    RHS1      PM[B6,B9,0]  11
    RHS1      PM[B6,B9,1]  -9975
    RHS1      PM[B7,B0,0]  -189
    RHS1      PM[B7,B0,1]  -9988.5
    RHS1      PM[B7,B1,0]  -171
    RHS1      PM[B7,B1,1]  -9991
    RHS1      PM[B7,B2,0]  -186.5
    RHS1      PM[B7,B2,1]  -9990
    RHS1      PM[B7,B3,0]  -178.5
    RHS1      PM[B7,B3,1]  -9993.5
    RHS1      PM[B7,B4,0]  -167
    RHS1      PM[B7,B4,1]  -9986.5
    RHS1      PM[B7,B5,0]  -187
    RHS1      PM[B7,B5,1]  -9986
    RHS1      PM[B7,B6,0]  -187
    RHS1      PM[B7,B6,1]  -9973.5
    RHS1      PM[B7,B8,0]  15
    RHS1      PM[B7,B8,1]  -9986
    RHS1      PM[B7,B9,0]  10
    RHS1      PM[B7,B9,1]  -9983.5
    RHS1      PM[B8,B0,0]  -186
    RHS1      PM[B8,B0,1]  -9987.5
    RHS1      PM[B8,B1,0]  -168
    RHS1      PM[B8,B1,1]  -9990
    RHS1      PM[B8,B2,0]  -183.5
    RHS1      PM[B8,B2,1]  -9989
    RHS1      PM[B8,B3,0]  -175.5
    RHS1      PM[B8,B3,1]  -9992.5
    RHS1      PM[B8,B4,0]  -164
    RHS1      PM[B8,B4,1]  -9985.5
    RHS1      PM[B8,B5,0]  -184
    RHS1      PM[B8,B5,1]  -9985
    RHS1      PM[B8,B6,0]  -184
    RHS1      PM[B8,B6,1]  -9972.5
    RHS1      PM[B8,B7,0]  -185
    RHS1      PM[B8,B7,1]  -9992
    RHS1      PM[B8,B9,0]  13
    RHS1      PM[B8,B9,1]  -9982.5
    RHS1      PM[B9,B0,0]  -183
    RHS1      PM[B9,B0,1]  -9976
    RHS1      PM[B9,B1,0]  -157
    RHS1      PM[B9,B1,1]  -9978.5
    RHS1      PM[B9,B2,0]  -176.5
    RHS1      PM[B9,B2,1]  -9977.5
    RHS1      PM[B9,B3,0]  -164.5
    RHS1      PM[B9,B3,1]  -9981
    RHS1      PM[B9,B4,0]  -153
    RHS1      PM[B9,B4,1]  -9974
    RHS1      PM[B9,B5,0]  -181
    RHS1      PM[B9,B5,1]  -9973.5
    RHS1      PM[B9,B6,0]  -181
    RHS1      PM[B9,B6,1]  -9961
    RHS1      PM[B9,B7,0]  -182
    RHS1      PM[B9,B7,1]  -9980.5
    RHS1      PM[B9,B8,0]  -179
    RHS1      PM[B9,B8,1]  -9973.5
BOUNDS
 LO BND1      c[B0,0]   5
 UP BND1      c[B0,0]   95
 LO BND1      c[B0,1]   8
 UP BND1      c[B0,1]   9982
 LO BND1      c[B1,0]   23
 UP BND1      c[B1,0]   92
 LO BND1      c[B1,1]   5.5
 UP BND1      c[B1,1]   9994.5
 LO BND1      c[B2,0]   7.5
 UP BND1      c[B2,0]   96.5
 LO BND1      c[B2,1]   6.5
 UP BND1      c[B2,1]   9996.5
 LO BND1      c[B3,0]   15.5
 UP BND1      c[B3,0]   89.5
 LO BND1      c[B3,1]   3
 UP BND1      c[B3,1]   9997
 LO BND1      c[B4,0]   27
 UP BND1      c[B4,0]   91
 LO BND1      c[B4,1]   10
 UP BND1      c[B4,1]   9975
 LO BND1      c[B5,0]   7
 UP BND1      c[B5,0]   93
 LO BND1      c[B5,1]   10.5
 UP BND1      c[B5,1]   9983.5
 LO BND1      c[B6,0]   7
 UP BND1      c[B6,0]   93
 LO BND1      c[B6,1]   23
 UP BND1      c[B6,1]   9988
 LO BND1      c[B7,0]   6
 UP BND1      c[B7,0]   94
 LO BND1      c[B7,1]   3.5
 UP BND1      c[B7,1]   9996.5
 LO BND1      c[B8,0]   9
 UP BND1      c[B8,0]   91
 LO BND1      c[B8,1]   10.5
 UP BND1      c[B8,1]   9995.5
 LO BND1      c[B9,0]   4
 UP BND1      c[B9,0]   88
 LO BND1      c[B9,1]   13
 UP BND1      c[B9,1]   9984
 LO BND1      h         25
 UP BND1      h         201
 BV BND1      delta[B0,B1]
 BV BND1      delta[B0,B2]
 BV BND1      delta[B0,B3]
 BV BND1      delta[B0,B4]
 BV BND1      delta[B0,B5]
 BV BND1      delta[B0,B6]
 BV BND1      delta[B0,B7]
 BV BND1      delta[B0,B8]
 BV BND1      delta[B0,B9]
 BV BND1      delta[B1,B0]
 BV BND1      delta[B1,B2]
 BV BND1      delta[B1,B3]
 BV BND1      delta[B1,B4]
 BV BND1      delta[B1,B5]
 BV BND1      delta[B1,B6]
 BV BND1      delta[B1,B7]
 BV BND1      delta[B1,B8]
 BV BND1      delta[B1,B9]
 BV BND1      delta[B2,B0]
 BV BND1      delta[B2,B1]
 BV BND1      delta[B2,B3]
 BV BND1      delta[B2,B4]
 BV BND1      delta[B2,B5]
 BV BND1      delta[B2,B6]
 BV BND1      delta[B2,B7]
 BV BND1      delta[B2,B8]
 BV BND1      delta[B2,B9]
 BV BND1      delta[B3,B0]
 BV BND1      delta[B3,B1]
 BV BND1      delta[B3,B2]
 BV BND1      delta[B3,B4]
 BV BND1      delta[B3,B5]
 BV BND1      delta[B3,B6]
 BV BND1      delta[B3,B7]
 BV BND1      delta[B3,B8]
 BV BND1      delta[B3,B9]
 BV BND1      delta[B4,B0]
 BV BND1      delta[B4,B1]
 BV BND1      delta[B4,B2]
 BV BND1      delta[B4,B3]
 BV BND1      delta[B4,B5]
 BV BND1      delta[B4,B6]
 BV BND1      delta[B4,B7]
 BV BND1      delta[B4,B8]
 BV BND1      delta[B4,B9]
 BV BND1      delta[B5,B0]
 BV BND1      delta[B5,B1]
 BV BND1      delta[B5,B2]
 BV BND1      delta[B5,B3]
 BV BND1      delta[B5,B4]
 BV BND1      delta[B5,B6]
 BV BND1      delta[B5,B7]
 BV BND1      delta[B5,B8]
 BV BND1      delta[B5,B9]
 BV BND1      delta[B6,B0]
 BV BND1      delta[B6,B1]
 BV BND1      delta[B6,B2]
 BV BND1      delta[B6,B3]
 BV BND1      delta[B6,B4]
 BV BND1      delta[B6,B5]
 BV BND1      delta[B6,B7]
 BV BND1      delta[B6,B8]
 BV BND1      delta[B6,B9]
 BV BND1      delta[B7,B0]
 BV BND1      delta[B7,B1]
 BV BND1      delta[B7,B2]
 BV BND1      delta[B7,B3]
 BV BND1      delta[B7,B4]
 BV BND1      delta[B7,B5]
 BV BND1      delta[B7,B6]
 BV BND1      delta[B7,B8]
 BV BND1      delta[B7,B9]
 BV BND1      delta[B8,B0]
 BV BND1      delta[B8,B1]
 BV BND1      delta[B8,B2]
 BV BND1      delta[B8,B3]
 BV BND1      delta[B8,B4]
 BV BND1      delta[B8,B5]
 BV BND1      delta[B8,B6]
 BV BND1      delta[B8,B7]
 BV BND1      delta[B8,B9]
 BV BND1      delta[B9,B0]
 BV BND1      delta[B9,B1]
 BV BND1      delta[B9,B2]
 BV BND1      delta[B9,B3]
 BV BND1      delta[B9,B4]
 BV BND1      delta[B9,B5]
 BV BND1      delta[B9,B6]
 BV BND1      delta[B9,B7]
 BV BND1      delta[B9,B8]
ENDATA
